units	lj
boundary	p p p
atom_style	full

variable	latt	equal 0.5

lattice	sc	${latt}

variable	lx	equal	10
variable	ly	equal	${lx}
variable	lz	equal	2*${lx}

region	box block 0 ${lx} 0 ${ly} 0 ${lz}
create_box 1 box
create_atoms 1 box
mass 1 1.0
velocity all create 1.0 87287 dist gaussian
pair_style lj/cut 2.5
pair_coeff 1 1 1.0 1.0 2.5
pair_modify tail yes
neighbor 0.3 bin
thermo_style custom step pe ke etotal temp press density
thermo 100
thermo_modify norm no
fix 1 all nve
timestep 0.005
run 1000
unfix	1
fix	2 all nvt temp 1.0 1.0 0.1
run	1000

dump	1 all xyz 100 output.xyz
dump_modify	1 element Ar
run	2000
